57836
10, 22, 21, 23, 48, 17, 19, 41, 13, 51, 43, 40, 7, 37, 5, 35, 24, 20, 50, 38, 44, 8, 32, 49, 26, 55, 28, 3, 6, 30, 4, 18, 12, 47, 54, 34, 53, 29, 36, 46, 39, 16, 15, 52, 25, 31, 27, 1, 33, 42, 45, 11, 2, 14, 9
